NAME : pairopt
TYPE : ACVRP
DIMENSION : 6
EDGE_WEIGHT_TYPE : EXPLICIT
EDGE_WEIGHT_FORMAT : FULL_MATRIX
CAPACITY : 141
VEHICLES : 2
EDGE_WEIGHT_SECTION
100000 -100000 -100000 100000 100000 100000 
100000 100000 1000000 3044 2129 1245 
100000 1000000 100000 1729 1567 590 
0 0 0 100000 736 2185 
0 0 0 736 100000 529 
0 0 0 2185 529 100000 
DEMAND_SECTION
1 0
2 0
3 0
4 40
5 57
6 90
DEPOT_SECTION
1
EOF